assignedStepForTask = [<>, 4];
executingSkill = [<>, <>, <>, <>, <>, <>, <>, <>, <>, 30, 18, 21];
chosenPart = [<>, <>, <>, 40];
workPos = [<>, <>, <>, 34];
targetPos = [74, 12, 8, 47, 45, 52, 22, 67, 44, 59, 18, 3, 34, 2, 68];